out/bwp_8_6_1_lp.out
6
3 0    4 2
5 0    7 1
0 0    2 2
0 3    6 3
0 4    6 4
1 5    7 5
