out/bwp_8_6_1_lp.log
Tried aggregator 2 times.
MIP Presolve eliminated 7 rows and 2 columns.
MIP Presolve modified 60 coefficients.
Aggregator did 60 substitutions.
Reduced MIP has 345 rows, 318 columns, and 873 nonzeros.
Reduced MIP has 185 binaries, 13 generals, 0 SOSs, and 60 indicators.
Presolve time = 0.00 sec. (0.75 ticks)
Found incumbent of value 30.000000 after 0.01 sec. (1.31 ticks)
Probing fixed 12 vars, tightened 62 bounds.
Probing time = 0.01 sec. (1.74 ticks)
Tried aggregator 3 times.
MIP Presolve eliminated 19 rows and 18 columns.
MIP Presolve modified 214 coefficients.
Aggregator did 113 substitutions.
Reduced MIP has 213 rows, 187 columns, and 657 nonzeros.
Reduced MIP has 143 binaries, 32 generals, 0 SOSs, and 52 indicators.
Presolve time = 0.00 sec. (1.43 ticks)
Probing time = 0.00 sec. (0.51 ticks)
Tried aggregator 1 time.
Reduced MIP has 213 rows, 187 columns, and 657 nonzeros.
Reduced MIP has 143 binaries, 32 generals, 0 SOSs, and 52 indicators.
Presolve time = 0.00 sec. (0.33 ticks)
Probing time = 0.00 sec. (0.52 ticks)
Clique table members: 82.
MIP emphasis: balance optimality and feasibility.
MIP search method: dynamic search.
Parallel mode: deterministic, using up to 4 threads.
Root relaxation solution time = 0.00 sec. (0.59 ticks)

        Nodes                                         Cuts/
   Node  Left     Objective  IInf  Best Integer    Best Bound    ItCnt     Gap

*     0+    0                           30.0000        6.0000       83   80.00%
      0     0        6.0000    85       30.0000        6.0000       83   80.00%
      0     0        6.0000    43       30.0000      Cuts: 33      127   80.00%
      0     0        6.0000    23       30.0000      Cuts: 48      157   80.00%
      0     0        6.0000    33       30.0000       Cuts: 7      165   80.00%
      0     0        6.0000     8       30.0000       Cuts: 3      168   80.00%
      0     0        6.0000     8       30.0000   Flowcuts: 1      169   80.00%
*     0+    0                            6.0000        6.0000      169    0.00%
      0     0        cutoff              6.0000        6.0000      169    0.00%
Elapsed time = 0.05 sec. (17.79 ticks, tree = 0.00 MB, solutions = 2)

Clique cuts applied:  13
Cover cuts applied:  12
Implied bound cuts applied:  8
Flow cuts applied:  3
Mixed integer rounding cuts applied:  4
Zero-half cuts applied:  4
Gomory fractional cuts applied:  2

Root node processing (before b&c):
  Real time             =    0.05 sec. (17.81 ticks)
Parallel b&c, 4 threads:
  Real time             =    0.00 sec. (0.00 ticks)
  Sync time (average)   =    0.00 sec.
  Wait time (average)   =    0.00 sec.
                          ------------
Total (root+branch&cut) =    0.05 sec. (17.81 ticks)
